Problem:    ring
Rows:       11
Columns:    91 (90 integer, 90 binary)
Non-zeros:  911
Status:     INTEGER OPTIMAL
Objective:  costi = 195 (MINimum)

   No.   Row name        Activity     Lower bound   Upper bound
------ ------------    ------------- ------------- -------------
     1 VincoloTraffico[1]
                                 329           327               
     2 VincoloTraffico[2]
                                 345           340               
     3 VincoloTraffico[3]
                                 351           351               
     4 VincoloTraffico[4]
                                 355           354               
     5 VincoloTraffico[5]
                                 357           356               
     6 VincoloTraffico[6]
                                 345           344               
     7 VincoloTraffico[7]
                                 351           350               
     8 VincoloTraffico[8]
                                 355           347               
     9 VincoloTraffico[9]
                                 347           339               
    10 VincoloTraffico[10]
                                 327           325               
    11 costi                     195                             

   No. Column name       Activity     Lower bound   Upper bound
------ ------------    ------------- ------------- -------------
     1 x[3,2]       *              1             0             1 
     2 x[4,2]       *              1             0             1 
     3 x[4,3]       *              1             0             1 
     4 x[5,2]       *              1             0             1 
     5 x[5,3]       *              1             0             1 
     6 x[5,4]       *              1             0             1 
     7 x[6,2]       *              0             0             1 
     8 x[6,3]       *              1             0             1 
     9 x[6,4]       *              1             0             1 
    10 x[6,5]       *              1             0             1 
    11 x[7,2]       *              1             0             1 
    12 x[7,3]       *              1             0             1 
    13 x[7,4]       *              1             0             1 
    14 x[7,5]       *              1             0             1 
    15 x[7,6]       *              1             0             1 
    16 x[8,2]       *              0             0             1 
    17 x[8,3]       *              1             0             1 
    18 x[8,4]       *              1             0             1 
    19 x[8,5]       *              1             0             1 
    20 x[8,6]       *              1             0             1 
    21 x[8,7]       *              1             0             1 
    22 x[9,2]       *              0             0             1 
    23 x[9,3]       *              0             0             1 
    24 x[9,4]       *              0             0             1 
    25 x[9,5]       *              1             0             1 
    26 x[9,6]       *              1             0             1 
    27 x[9,7]       *              1             0             1 
    28 x[9,8]       *              1             0             1 
    29 x[10,2]      *              0             0             1 
    30 x[10,3]      *              0             0             1 
    31 x[10,4]      *              0             0             1 
    32 x[10,5]      *              1             0             1 
    33 x[10,6]      *              1             0             1 
    34 x[10,7]      *              1             0             1 
    35 x[10,8]      *              1             0             1 
    36 x[10,9]      *              1             0             1 
    37 x[2,3]       *              0             0             1 
    38 x[2,4]       *              0             0             1 
    39 x[2,5]       *              0             0             1 
    40 x[2,6]       *              0             0             1 
    41 x[2,7]       *              0             0             1 
    42 x[2,8]       *              1             0             1 
    43 x[2,9]       *              1             0             1 
    44 x[2,10]      *              1             0             1 
    45 x[3,4]       *              0             0             1 
    46 x[3,5]       *              0             0             1 
    47 x[3,6]       *              0             0             1 
    48 x[3,7]       *              0             0             1 
    49 x[3,8]       *              1             0             1 
    50 x[3,9]       *              1             0             1 
    51 x[3,10]      *              1             0             1 
    52 x[4,5]       *              0             0             1 
    53 x[4,6]       *              0             0             1 
    54 x[4,7]       *              0             0             1 
    55 x[4,8]       *              0             0             1 
    56 x[4,9]       *              1             0             1 
    57 x[4,10]      *              1             0             1 
    58 x[5,6]       *              0             0             1 
    59 x[5,7]       *              0             0             1 
    60 x[5,8]       *              0             0             1 
    61 x[5,9]       *              0             0             1 
    62 x[5,10]      *              1             0             1 
    63 x[6,7]       *              0             0             1 
    64 x[6,8]       *              0             0             1 
    65 x[6,9]       *              0             0             1 
    66 x[6,10]      *              0             0             1 
    67 x[7,8]       *              0             0             1 
    68 x[7,9]       *              0             0             1 
    69 x[7,10]      *              0             0             1 
    70 x[8,9]       *              0             0             1 
    71 x[8,10]      *              0             0             1 
    72 x[9,10]      *              0             0             1 
    73 x[2,1]       *              1             0             1 
    74 x[3,1]       *              1             0             1 
    75 x[4,1]       *              0             0             1 
    76 x[5,1]       *              1             0             1 
    77 x[6,1]       *              1             0             1 
    78 x[7,1]       *              0             0             1 
    79 x[8,1]       *              0             0             1 
    80 x[9,1]       *              0             0             1 
    81 x[10,1]      *              0             0             1 
    82 x[1,2]       *              0             0             1 
    83 x[1,3]       *              0             0             1 
    84 x[1,4]       *              0             0             1 
    85 x[1,5]       *              0             0             1 
    86 x[1,6]       *              0             0             1 
    87 x[1,7]       *              1             0             1 
    88 x[1,8]       *              1             0             1 
    89 x[1,9]       *              1             0             1 
    90 x[1,10]      *              1             0             1 
    91 alpha                     195             0               

Integer feasibility conditions:

KKT.PE: max.abs.err = 0.00e+00 on row 0
        max.rel.err = 0.00e+00 on row 0
        High quality

KKT.PB: max.abs.err = 0.00e+00 on row 0
        max.rel.err = 0.00e+00 on row 0
        High quality

End of output
